0000000000000000
0000000000000000
0000000000000000
0000000000000000
0000000000000000
0000000000000000
0001100000000000
0001100000000000
0000100000000000
0000100000000000
0000000000000000
0000010000000000
0011010000000000
0010010000000000
0000000000000000
0000000000000000
